
Gurobi 6.5.2 (linux64) logging started Mon Aug 29 10:57:52 2016

Optimize a model with 101 rows, 418 columns and 837 nonzeros
Coefficient statistics:
  Matrix range    [1e+00, 2e+00]
  Objective range [4e+00, 1e+02]
  Bounds range    [1e+00, 1e+00]
  RHS range       [1e+00, 1e+00]
Found heuristic solution: objective 2471
Presolve removed 51 rows and 50 columns
Presolve time: 0.00s
Presolved: 50 rows, 368 columns, 736 nonzeros
Variable types: 0 continuous, 368 integer (368 binary)

Root relaxation: objective 9.870000e+02, 66 iterations, 0.00 seconds

    Nodes    |    Current Node    |     Objective Bounds      |     Work
 Expl Unexpl |  Obj  Depth IntInf | Incumbent    BestBd   Gap | It/Node Time

*    0     0               0     987.0000000  987.00000  0.00%     -    0s

Explored 0 nodes (66 simplex iterations) in 0.00 seconds
Thread count was 8 (of 8 available processors)

Optimal solution found (tolerance 1.00e-04)
Best objective 9.870000000000e+02, best bound 9.870000000000e+02, gap 0.0%
